
Log started (V11.0.0) Sun Apr 13 13:00:41 2008

Tried aggregator 1 time.
Reduced MIP has 140 rows, 4001 columns, and 8040 nonzeros.
Presolve time =    0.03 sec.
Clique table members: 100.
MIP emphasis: balance optimality and feasibility.
MIP search method: dynamic search.
Parallel mode: none, using 1 thread.
Root relaxation solution time =    0.09 sec.

        Nodes                                         Cuts/
   Node  Left     Objective  IInf  Best Integer     Best Node    ItCnt     Gap

*     0+    0                         4743.0000        8.1594      685   99.83%
*     0+    0                           13.0000        8.1594      685   37.24%
      0     0        9.0000    45       13.0000      Fract: 4      720   30.77%
*     0+    0                           12.0000        9.0000      720   25.00%
      0     0       10.0000    24       12.0000       Cuts: 4      736   16.67%
*     0+    0                           11.0000       10.0000      736    9.09%
      0     0       10.0000    31       11.0000      Cuts: 11      761    9.09%
*     0+    0                           10.0000       10.0000      761    0.00%

Clique cuts applied:  2
Implied bound cuts applied:  2
Flow cuts applied:  9

Solution pool: 5 solutions saved.

MIP - Integer optimal solution:  Objective = 1.0000000000e+001
Solution time =    0.36 sec.  Iterations = 761  Nodes = 0


Incumbent solution
Variable Name           Solution Value
Cmax                         10.000000
X_1_3                         1.000000
X_2_24                        1.000000
X_3_7                         1.000000
X_4_36                        1.000000
X_5_22                        1.000000
X_6_12                        1.000000
X_7_21                        1.000000
X_8_11                        1.000000
X_9_26                        1.000000
X_10_40                       1.000000
X_11_5                        1.000000
X_12_19                       1.000000
X_13_16                       1.000000
X_14_13                       1.000000
X_15_2                        1.000000
X_16_2                        1.000000
X_17_17                       1.000000
X_18_4                        1.000000
X_19_38                       1.000000
X_20_12                       1.000000
X_21_16                       1.000000
X_22_36                       1.000000
X_23_4                        1.000000
X_24_11                       1.000000
X_25_11                       1.000000
X_26_30                       1.000000
X_27_6                        1.000000
X_28_32                       1.000000
X_29_35                       1.000000
X_30_40                       1.000000
X_31_21                       1.000000
X_32_9                        1.000000
X_33_31                       1.000000
X_34_18                       1.000000
X_35_29                       1.000000
X_36_23                       1.000000
X_37_10                       1.000000
X_38_27                       1.000000
X_39_20                       1.000000
X_40_25                       1.000000
X_41_20                       1.000000
X_42_2                        1.000000
X_43_2                        1.000000
X_44_40                       1.000000
X_45_23                       1.000000
X_46_30                       1.000000
X_47_33                       1.000000
X_48_20                       1.000000
X_49_38                       1.000000
X_50_4                        1.000000
X_51_28                       1.000000
X_52_34                       1.000000
X_53_8                        1.000000
X_54_20                       1.000000
X_55_15                       1.000000
X_56_35                       1.000000
X_57_36                       1.000000
X_58_27                       1.000000
X_59_31                       1.000000
X_60_17                       1.000000
X_61_23                       1.000000
X_62_30                       1.000000
X_63_20                       1.000000
X_64_10                       1.000000
X_65_39                       1.000000
X_66_33                       1.000000
X_67_29                       1.000000
X_68_5                        1.000000
X_69_23                       1.000000
X_70_3                        1.000000
X_71_29                       1.000000
X_72_4                        1.000000
X_73_37                       1.000000
X_74_1                        1.000000
X_75_11                       1.000000
X_76_27                       1.000000
X_77_34                       1.000000
X_78_28                       1.000000
X_79_21                       1.000000
X_80_32                       1.000000
X_81_14                       1.000000
X_82_27                       1.000000
X_83_6                        1.000000
X_84_17                       1.000000
X_85_26                       1.000000
X_86_9                        1.000000
X_87_8                        1.000000
X_88_15                       1.000000
X_89_15                       1.000000
X_90_15                       1.000000
X_91_37                       1.000000
X_92_34                       1.000000
X_93_25                       1.000000
X_94_12                       1.000000
X_95_7                        1.000000
X_96_16                       1.000000
X_97_39                       1.000000
X_98_1                        1.000000
X_99_12                       1.000000
X_100_31                      1.000000
All other variables in the range 1-4001 are 0.
